0 7 44 13 43 38 28 50 2 27 45 31
7 0 6 1 25 24 9 30 26 14 6 29
44 6 0 38 7 18 42 23 20 29 27 37
13 1 38 0 28 27 19 3 9 14 26 9
43 25 7 28 0 8 31 7 25 4 49 11
38 24 18 27 8 0 43 38 6 11 9 26
28 9 42 19 31 43 0 16 45 39 15 8
50 30 23 3 7 38 16 0 21 41 35 34
2 26 20 9 25 6 45 21 0 10 44 15
27 14 29 14 4 11 39 41 10 0 36 47
45 6 27 26 49 9 15 35 44 36 0 19
31 29 37 9 11 26 8 34 15 47 19 0
